%int: n; % Número de días
%int: m; % Número de clientes
%array[1..n, 1..m] of int: demand; % Demanda diaria por cliente y día
%array[1..3] of int: costs; % Costos de producción (N, H, T)
%array[1..3] of int: capacities; % Capacidad diaria (N, H, T)
%array[1..m] of int: Ps; % Pago individual por cliente por MW
%float: min_demand_percentage = 0.50; % Porcentaje mínimo de demanda a cubrir
%float: hydro_max_percentage = 0.80; % Porcentaje máximo de capacidad para hidroeléctrica
%int: hydro_max_consecutive_days = 1; % Días consecutivos máximos a ese porcentaje


% Número de días
n = 3;

% Número de clientes
m = 4;

% Demanda diaria por cliente y día (suponiendo tres días y 4 clientes)
demand = [| 310, 320, 330, 340
          | 320, 330, 340, 350
          | 330, 340, 350, 360 |];


% Costos de producción (Nuclear, Hidroeléctrica, Térmica)
costs = [46, 22, 30]; 

% Capacidad diaria (Nuclear, Hidroeléctrica, Térmica)
capacities = [1000, 300, 550];

% Pago individual por cliente por MW (4 clientes)
Ps = [64, 62, 61, 63]; 

% Porcentaje mínimo de demanda a cubrir
min_demand_percentage = 0.50;

% Porcentaje máximo de capacidad para hidroeléctrica
hydro_max_percentage = 0.75;

% Días consecutivos máximos a ese porcentaje
hydro_max_consecutive_days = 1;


